
Gurobi 12.0.1 (mac64[arm], gurobi_cl) logging started Tue Feb 25 11:53:17 2025

Set parameter Username
Set parameter LicenseID to value 2625898
Set parameter LogFile to value "gurobi.log"
Using license file /Users/robertlawrence/gurobi.lic
Academic license - for non-commercial use only - expires 2026-02-20
